=obj=                     3311.17998412251
0	x379	1.0
1	x381	1.0
2	x390	1.0
3	x448	1.0
4	x454	1.0
5	x469	1.0
6	x607	1.0
7	x616	1.0
8	x664	1.0
9	x668	1.0
10	x697	1.0
11	x715	1.0
12	x725	1.0
13	x811	1.0
14	x873	1.0
15	x1956	1.0
16	x921	1.0
17	x952	1.0
18	x1930	1.0
19	x1195	1.0
20	x1214	1.0
21	x1271	1.0
22	x1341	1.0
23	x1899	1.0
24	x1444	1.0
25	x1489	1.0
26	x1517	1.0
27	x1560	1.0
28	x1624	1.0
29	x1872	1.0
30	x1687	1.0
31	x1723	1.0
32	x1764	1.0
33	x1786	1.0
34	x1830	1.0
35	x1752	2.0
36	x1644	1.0
37	x393	2.0
38	x2	106.0
39	x3	500.0
40	x39	93.0
41	x142	216.0
42	x154	432.0
43	x57	5.0
44	x240	19.0
45	x158	93.0
46	x40	143.0
47	x120	96.0
48	x151	91.0
49	x174	92.0
50	x177	62.0
51	x10	97.0
52	x12	35.0
53	x330	96.0
54	x168	21.0
55	x351	3.0
56	x95	12.0
57	x128	142.0
58	x171	15.0
59	x210	94.0
60	x316	63.0
61	x211	96.0
62	x125	95.0
63	x140	96.0
64	x34	52.0
65	x37	89.0
66	x276	6.0
67	x101	42.0
68	x339	18.0
69	x233	36.0
70	x292	13.0
71	x346	57.0
72	x62	64.5
73	x245	7.5
74	x66	6.0
